param n := 120;
param c := 450
param : V : p w :=
   0	  36	  26
   1	  35	  25
   2	  77	  67
   3	  87	  77
   4	  77	  67
   5	  89	  79
   6	  57	  47
   7	  94	  84
   8	  60	  50
   9	  31	  21
  10	  97	  87
  11	  93	  83
  12	  54	  44
  13	  98	  88
  14	  88	  78
  15	  63	  53
  16	  88	  78
  17	  47	  37
  18	  57	  47
  19	  62	  52
  20	  42	  32
  21	  98	  88
  22	  95	  85
  23	  92	  82
  24	  65	  55
  25	  51	  41
  26	  70	  60
  27	  76	  66
  28	  88	  78
  29	  82	  72
  30	  44	  34
  31	  74	  64
  32	  30	  20
  33	  70	  60
  34	 110	 100
  35	  72	  62
  36	  90	  80
  37	  44	  34
  38	  78	  68
  39	  48	  38
  40	  42	  32
  41	  42	  32
  42	  47	  37
  43	  92	  82
  44	 108	  98
  45	 100	  90
  46	  68	  58
  47	 107	  97
  48	  66	  56
  49	  44	  34
  50	  80	  70
  51	  49	  39
  52	  66	  56
  53	  79	  69
  54	  46	  36
  55	  30	  20
  56	 109	  99
  57	  94	  84
  58	  63	  53
  59	  37	  27
  60	  98	  88
  61	  63	  53
  62	  52	  42
  63	  55	  45
  64	  52	  42
  65	  41	  31
  66	  64	  54
  67	  70	  60
  68	  65	  55
  69	  37	  27
  70	  46	  36
  71	  41	  31
  72	  49	  39
  73	 101	  91
  74	  55	  45
  75	 107	  97
  76	  36	  26
  77	  90	  80
  78	  51	  41
  79	  66	  56
  80	  80	  70
  81	 107	  97
  82	  58	  48
  83	  97	  87
  84	  33	  23
  85	  42	  32
  86	  85	  75
  87	 110	 100
  88	 107	  97
  89	  61	  51
  90	  88	  78
  91	  88	  78
  92	  31	  21
  93	  82	  72
  94	  82	  72
  95	  89	  79
  96	  56	  46
  97	  40	  30
  98	  58	  48
  99	  37	  27
 100	 105	  95
 101	  58	  48
 102	  77	  67
 103	  68	  58
 104	  56	  46
 105	 102	  92
 106	  31	  21
 107	  92	  82
 108	 101	  91
 109	  50	  40
 110	  66	  56
 111	  34	  24
 112	 104	  94
 113	  54	  44
 114	 101	  91
 115	 102	  92
 116	  91	  81
 117	  34	  24
 118	  94	  84
 119	  54	  44
;

set E :=
   0	   2
   0	   3
   0	   4
   0	  11
   0	  19
   0	  21
   0	  25
   0	  33
   0	  38
   0	  42
   0	  51
   0	  54
   0	  58
   0	  62
   0	  63
   0	  73
   0	  93
   0	  94
   0	  97
   0	  98
   0	 100
   0	 101
   0	 106
   0	 107
   1	   2
   1	   3
   1	   5
   1	  10
   1	  16
   1	  23
   1	  26
   1	  28
   1	  30
   1	  38
   1	  42
   1	  48
   1	  54
   1	  57
   1	  60
   1	  62
   1	  65
   1	  67
   1	  74
   1	  76
   1	  78
   1	  80
   1	  84
   1	  85
   1	  89
   1	  93
   1	 102
   1	 108
   1	 110
   2	   3
   2	  11
   2	  14
   2	  23
   2	  30
   2	  39
   2	  44
   2	  47
   2	  58
   2	  61
   2	  63
   2	  64
   2	  93
   2	  95
   2	 100
   2	 108
   2	 110
   2	 111
   2	 112
   2	 113
   2	 114
   2	 118
   3	   6
   3	  38
   3	  40
   3	  49
   3	  57
   3	  58
   3	  59
   3	  61
   3	  64
   3	  86
   3	  88
   3	 100
   3	 102
   3	 111
   3	 115
   3	 118
   4	   6
   4	  13
   4	  15
   4	  29
   4	  33
   4	  35
   4	  42
   4	  47
   4	  49
   4	  52
   4	  53
   4	  59
   4	  80
   4	  84
   4	  90
   4	 104
   4	 110
   4	 114
   4	 116
   5	   8
   5	  11
   5	  12
   5	  28
   5	  30
   5	  33
   5	  39
   5	  56
   5	  68
   5	  70
   5	  71
   5	  75
   5	  77
   5	  79
   5	  83
   5	  87
   5	  88
   5	 104
   5	 107
   5	 109
   6	  11
   6	  16
   6	  21
   6	  25
   6	  33
   6	  37
   6	  40
   6	  45
   6	  52
   6	  58
   6	  67
   6	  70
   6	  75
   6	  82
   6	  84
   6	  90
   6	  94
   6	 110
   6	 113
   7	  17
   7	  21
   7	  26
   7	  27
   7	  28
   7	  30
   7	  33
   7	  40
   7	  56
   7	  57
   7	  67
   7	  69
   7	  78
   7	  85
   7	  89
   7	  99
   7	 103
   7	 108
   7	 113
   7	 117
   8	  11
   8	  13
   8	  16
   8	  18
   8	  21
   8	  25
   8	  26
   8	  32
   8	  35
   8	  43
   8	  45
   8	  49
   8	  54
   8	  58
   8	  65
   8	  68
   8	  70
   8	  81
   8	  94
   8	  98
   8	 102
   8	 103
   8	 106
   8	 109
   8	 113
   8	 114
   9	  15
   9	  20
   9	  21
   9	  25
   9	  28
   9	  40
   9	  41
   9	  44
   9	  45
   9	  47
   9	  50
   9	  60
   9	  64
   9	  66
   9	  68
   9	  78
   9	  81
   9	  86
   9	  88
   9	  94
   9	  98
   9	 102
   9	 103
   9	 110
   9	 112
   9	 118
  10	  14
  10	  18
  10	  23
  10	  27
  10	  37
  10	  40
  10	  47
  10	  52
  10	  53
  10	  57
  10	  58
  10	  62
  10	  63
  10	  66
  10	  67
  10	  70
  10	  85
  10	  93
  10	  97
  10	 106
  10	 109
  10	 111
  10	 112
  10	 117
  10	 118
  10	 119
  11	  12
  11	  20
  11	  21
  11	  26
  11	  27
  11	  29
  11	  31
  11	  34
  11	  37
  11	  38
  11	  42
  11	  43
  11	  56
  11	  62
  11	  66
  11	  71
  11	  84
  11	  92
  11	  93
  11	 101
  11	 102
  11	 105
  11	 106
  11	 111
  11	 115
  11	 116
  12	  13
  12	  14
  12	  15
  12	  18
  12	  19
  12	  25
  12	  29
  12	  30
  12	  31
  12	  36
  12	  39
  12	  44
  12	  48
  12	  50
  12	  51
  12	  55
  12	  57
  12	  63
  12	  73
  12	  91
  12	  98
  12	 100
  12	 110
  12	 112
  13	  15
  13	  25
  13	  28
  13	  46
  13	  50
  13	  66
  13	  68
  13	  74
  13	  75
  13	  78
  13	  80
  13	  82
  13	  83
  13	  85
  13	  91
  13	 108
  13	 110
  13	 117
  13	 118
  14	  23
  14	  24
  14	  26
  14	  31
  14	  33
  14	  38
  14	  45
  14	  47
  14	  49
  14	  60
  14	  62
  14	  63
  14	  65
  14	  86
  14	  92
  14	  99
  14	 114
  15	  22
  15	  28
  15	  29
  15	  38
  15	  39
  15	  43
  15	  46
  15	  54
  15	  58
  15	  68
  15	  70
  15	  74
  15	  75
  15	  77
  15	  78
  15	  84
  15	  90
  15	  95
  15	 103
  15	 114
  15	 116
  16	  18
  16	  21
  16	  23
  16	  26
  16	  32
  16	  33
  16	  37
  16	  46
  16	  52
  16	  54
  16	  62
  16	  66
  16	  72
  16	  75
  16	  87
  16	  92
  16	  94
  16	 100
  16	 102
  16	 103
  16	 108
  16	 119
  17	  18
  17	  19
  17	  21
  17	  22
  17	  29
  17	  33
  17	  45
  17	  46
  17	  51
  17	  57
  17	  64
  17	  74
  17	  76
  17	  78
  17	  81
  17	  84
  17	  93
  17	  94
  17	 102
  17	 103
  17	 107
  17	 110
  18	  23
  18	  24
  18	  27
  18	  37
  18	  38
  18	  40
  18	  41
  18	  52
  18	  53
  18	  58
  18	  67
  18	  73
  18	  74
  18	  80
  18	  82
  18	  86
  18	  87
  18	  92
  18	  93
  18	 102
  18	 108
  18	 114
  18	 115
  18	 119
  19	  36
  19	  38
  19	  40
  19	  41
  19	  45
  19	  47
  19	  52
  19	  59
  19	  61
  19	  66
  19	  67
  19	  69
  19	  78
  19	  83
  19	  85
  19	  86
  19	  87
  19	  90
  19	  91
  19	  96
  19	 101
  19	 111
  19	 112
  19	 118
  20	  28
  20	  29
  20	  30
  20	  33
  20	  37
  20	  42
  20	  49
  20	  52
  20	  57
  20	  71
  20	  73
  20	  79
  20	  80
  20	  84
  20	  89
  20	  93
  20	 100
  20	 115
  21	  22
  21	  23
  21	  25
  21	  32
  21	  36
  21	  38
  21	  39
  21	  41
  21	  44
  21	  47
  21	  58
  21	  64
  21	  66
  21	  70
  21	  77
  21	  80
  21	  90
  21	  94
  21	  95
  21	  98
  21	 101
  21	 103
  21	 114
  21	 116
  21	 117
  22	  27
  22	  29
  22	  32
  22	  36
  22	  41
  22	  63
  22	  64
  22	  67
  22	  74
  22	  75
  22	  94
  22	  95
  22	  96
  22	 103
  22	 108
  22	 117
  22	 119
  23	  28
  23	  32
  23	  37
  23	  39
  23	  54
  23	  66
  23	  67
  23	  73
  23	  85
  23	  86
  23	  92
  23	  94
  23	  99
  23	 102
  23	 111
  23	 112
  23	 116
  24	  28
  24	  33
  24	  37
  24	  39
  24	  41
  24	  43
  24	  46
  24	  50
  24	  62
  24	  64
  24	  70
  24	  81
  24	  86
  24	 103
  24	 104
  24	 105
  24	 106
  24	 109
  24	 110
  24	 112
  24	 114
  24	 116
  25	  27
  25	  30
  25	  36
  25	  40
  25	  44
  25	  45
  25	  52
  25	  58
  25	  60
  25	  68
  25	  71
  25	  79
  25	  80
  25	  82
  25	  86
  25	  87
  25	 100
  25	 101
  25	 112
  26	  32
  26	  38
  26	  41
  26	  50
  26	  57
  26	  58
  26	  59
  26	  61
  26	  64
  26	  66
  26	  70
  26	  86
  26	  91
  26	 104
  26	 114
  26	 116
  26	 118
  27	  29
  27	  30
  27	  39
  27	  40
  27	  43
  27	  44
  27	  45
  27	  48
  27	  55
  27	  60
  27	  72
  27	  76
  27	  79
  27	  91
  27	  96
  27	 101
  27	 103
  27	 105
  27	 106
  27	 114
  27	 115
  27	 117
  27	 119
  28	  34
  28	  65
  28	  71
  28	  78
  28	  82
  28	  86
  28	  87
  28	 104
  28	 107
  28	 109
  28	 116
  29	  30
  29	  32
  29	  34
  29	  35
  29	  36
  29	  39
  29	  44
  29	  45
  29	  48
  29	  53
  29	  62
  29	  70
  29	  72
  29	  77
  29	  81
  29	  82
  29	  83
  29	  87
  29	 100
  29	 101
  30	  31
  30	  39
  30	  42
  30	  43
  30	  47
  30	  53
  30	  57
  30	  63
  30	  68
  30	  69
  30	  75
  30	  77
  30	  90
  30	  94
  30	  98
  30	 102
  30	 103
  30	 110
  30	 111
  30	 113
  30	 115
  31	  34
  31	  40
  31	  56
  31	  57
  31	  62
  31	  73
  31	  82
  31	  85
  31	  90
  31	  93
  31	  96
  31	 105
  31	 107
  31	 108
  31	 110
  31	 113
  31	 117
  32	  42
  32	  45
  32	  56
  32	  58
  32	  68
  32	  74
  32	  76
  32	  80
  32	  83
  32	  90
  32	  92
  32	  99
  32	 101
  32	 102
  32	 106
  33	  34
  33	  42
  33	  46
  33	  52
  33	  56
  33	  64
  33	  68
  33	  72
  33	  84
  33	  94
  33	 105
  33	 111
  33	 112
  34	  36
  34	  38
  34	  40
  34	  45
  34	  47
  34	  55
  34	  56
  34	  64
  34	  83
  34	  85
  34	  89
  34	  91
  34	  94
  34	  95
  34	  97
  34	 101
  34	 104
  34	 105
  34	 107
  34	 114
  34	 118
  35	  39
  35	  42
  35	  43
  35	  49
  35	  54
  35	  60
  35	  62
  35	  67
  35	  70
  35	  71
  35	  74
  35	  81
  35	  83
  35	  94
  35	  99
  35	 105
  35	 107
  35	 110
  35	 113
  35	 115
  35	 117
  36	  37
  36	  45
  36	  51
  36	  53
  36	  56
  36	  62
  36	  69
  36	  71
  36	  73
  36	  75
  36	  90
  36	  99
  36	 109
  36	 114
  36	 119
  37	  46
  37	  61
  37	  63
  37	  64
  37	  78
  37	  82
  37	  86
  37	  91
  37	 109
  38	  43
  38	  48
  38	  60
  38	  64
  38	  65
  38	  69
  38	  87
  38	  89
  38	  90
  38	  93
  38	  96
  38	  97
  38	 101
  38	 104
  38	 110
  38	 111
  39	  43
  39	  49
  39	  52
  39	  53
  39	  62
  39	  65
  39	  69
  39	  75
  39	  77
  39	  79
  39	  82
  39	  86
  39	  94
  39	  99
  39	 101
  39	 108
  39	 109
  39	 110
  40	  42
  40	  50
  40	  52
  40	  55
  40	  59
  40	  63
  40	  64
  40	  70
  40	  81
  40	  82
  40	  85
  40	  87
  40	  88
  40	  91
  40	  94
  40	 102
  40	 107
  40	 108
  40	 111
  40	 113
  40	 116
  41	  55
  41	  56
  41	  57
  41	  62
  41	  64
  41	  67
  41	  72
  41	  79
  41	  81
  41	  91
  41	  92
  41	  95
  41	  97
  41	  98
  41	 101
  41	 103
  41	 115
  42	  50
  42	  57
  42	  70
  42	  71
  42	  76
  42	  82
  42	  85
  42	  94
  42	 101
  42	 114
  42	 115
  43	  46
  43	  47
  43	  57
  43	  60
  43	  73
  43	  80
  43	  90
  43	 115
  43	 116
  44	  49
  44	  57
  44	  61
  44	  62
  44	  66
  44	  67
  44	  68
  44	  74
  44	  76
  44	  79
  44	  80
  44	  82
  44	  85
  44	  88
  44	  91
  44	  92
  44	  93
  44	  95
  44	 101
  44	 102
  44	 105
  45	  51
  45	  54
  45	  56
  45	  65
  45	  72
  45	  74
  45	  78
  45	  79
  45	  82
  45	  87
  45	  95
  45	 101
  45	 103
  45	 104
  45	 112
  45	 117
  45	 118
  46	  48
  46	  59
  46	  61
  46	  63
  46	  67
  46	  70
  46	  75
  46	  81
  46	  86
  46	  89
  46	  91
  46	  92
  46	  94
  46	  96
  46	  99
  46	 100
  46	 102
  46	 103
  46	 104
  46	 106
  46	 108
  46	 117
  47	  50
  47	  56
  47	  67
  47	  68
  47	  69
  47	  70
  47	  79
  47	  81
  47	  84
  47	  87
  47	  92
  47	  93
  47	 100
  47	 119
  48	  49
  48	  54
  48	  55
  48	  62
  48	  64
  48	  65
  48	  75
  48	  79
  48	  85
  48	  87
  48	  93
  48	 105
  48	 111
  48	 114
  48	 116
  49	  54
  49	  55
  49	  58
  49	  67
  49	  68
  49	  69
  49	  71
  49	  80
  49	  86
  49	  93
  49	  94
  49	  95
  49	 106
  49	 108
  49	 114
  49	 117
  50	  56
  50	  59
  50	  60
  50	  77
  50	  78
  50	  79
  50	  89
  50	 101
  50	 103
  50	 109
  50	 110
  50	 111
  51	  56
  51	  64
  51	  70
  51	  71
  51	  76
  51	  77
  51	  90
  51	  99
  51	 104
  51	 106
  51	 108
  51	 110
  51	 113
  52	  54
  52	  55
  52	  57
  52	  61
  52	  62
  52	  68
  52	  79
  52	  83
  52	  84
  52	  86
  52	  87
  52	  91
  52	 100
  52	 102
  52	 119
  53	  63
  53	  64
  53	  65
  53	  69
  53	  83
  53	  84
  53	  90
  53	  91
  53	  93
  53	  94
  53	 103
  53	 114
  53	 119
  54	  56
  54	  62
  54	  66
  54	  74
  54	  77
  54	  78
  54	  82
  54	  85
  54	  87
  54	  90
  54	  91
  54	  97
  54	 101
  54	 103
  54	 104
  54	 116
  54	 119
  55	  58
  55	  62
  55	  78
  55	  80
  55	  81
  55	  92
  55	 110
  56	  68
  56	  71
  56	  73
  56	  74
  56	  83
  56	  86
  56	  90
  56	  91
  56	  97
  56	 110
  56	 116
  57	  60
  57	  61
  57	  69
  57	  71
  57	  76
  57	  86
  57	  93
  57	  95
  57	  99
  57	 103
  57	 106
  57	 111
  57	 117
  58	  73
  58	  80
  58	  84
  58	  85
  58	  89
  58	  95
  58	 104
  58	 108
  58	 118
  59	  66
  59	  85
  59	  98
  59	 101
  59	 102
  59	 103
  59	 113
  59	 115
  59	 119
  60	  62
  60	  63
  60	  68
  60	  73
  60	  75
  60	  77
  60	  83
  60	  85
  60	  89
  60	  93
  60	  95
  60	 107
  60	 113
  60	 114
  60	 116
  61	  63
  61	  73
  61	  76
  61	  78
  61	  80
  61	  97
  61	 101
  61	 104
  61	 112
  61	 114
  61	 117
  62	  65
  62	  68
  62	  72
  62	  77
  62	  78
  62	  81
  62	  84
  62	  96
  62	 102
  62	 106
  62	 108
  62	 111
  62	 114
  62	 117
  63	  75
  63	  86
  63	  87
  63	  88
  63	  90
  63	  92
  63	  94
  63	  97
  63	 103
  63	 106
  63	 108
  63	 109
  63	 110
  63	 116
  64	  69
  64	  80
  64	  87
  64	  94
  64	  99
  64	 100
  64	 110
  64	 115
  65	  66
  65	  73
  65	  74
  65	  80
  65	  83
  65	  86
  65	  91
  65	  99
  65	 102
  65	 104
  65	 108
  65	 113
  65	 115
  65	 119
  66	  71
  66	  80
  66	  83
  66	 103
  66	 110
  66	 113
  66	 114
  67	  69
  67	  72
  67	  80
  67	  89
  67	  92
  67	 101
  67	 107
  67	 111
  68	  69
  68	  74
  68	  75
  68	  77
  68	  78
  68	  90
  68	  94
  68	 100
  68	 101
  68	 113
  68	 115
  68	 116
  69	  89
  69	  90
  69	  99
  69	 105
  69	 107
  69	 108
  69	 110
  69	 112
  70	  74
  70	  84
  70	  88
  70	  93
  70	 102
  70	 110
  70	 119
  71	  72
  71	  76
  71	  78
  71	  80
  71	  98
  71	  99
  71	 112
  71	 115
  71	 116
  71	 117
  71	 119
  72	  87
  72	  92
  72	  94
  72	  99
  72	 102
  72	 106
  72	 108
  72	 110
  73	  74
  73	  78
  73	  85
  73	  87
  73	  88
  73	  93
  73	  94
  73	  95
  73	 105
  73	 107
  73	 108
  73	 109
  73	 112
  73	 113
  73	 118
  74	  84
  74	  89
  74	  93
  74	  94
  74	  98
  74	 107
  74	 110
  74	 111
  74	 112
  74	 113
  75	  80
  75	  84
  75	 101
  75	 104
  75	 105
  75	 110
  75	 114
  76	  81
  76	  87
  76	  94
  76	  97
  76	 102
  76	 106
  76	 107
  76	 108
  76	 112
  76	 114
  77	  79
  77	  81
  77	  88
  77	  89
  77	  92
  77	  94
  77	  95
  77	 103
  77	 112
  77	 119
  78	  79
  78	  86
  78	  89
  78	  91
  78	  94
  78	 108
  78	 109
  78	 112
  78	 119
  79	  82
  79	  94
  79	  99
  79	 100
  79	 106
  79	 113
  79	 116
  79	 117
  80	  81
  80	  88
  80	  93
  80	 103
  80	 105
  80	 119
  81	  83
  81	  87
  81	  96
  81	  98
  81	  99
  81	 103
  81	 107
  82	  87
  82	  89
  82	  93
  82	  97
  82	 102
  82	 104
  82	 109
  82	 110
  83	  91
  83	  97
  83	 110
  84	  90
  84	  97
  84	 100
  84	 102
  84	 108
  84	 110
  84	 115
  84	 118
  84	 119
  85	  88
  85	  89
  85	  92
  85	  93
  85	 100
  85	 106
  85	 111
  85	 113
  85	 114
  86	  92
  86	  96
  86	 105
  86	 106
  86	 109
  86	 110
  86	 114
  87	  90
  87	  93
  87	  94
  87	  96
  87	  97
  87	 101
  87	 106
  87	 111
  87	 119
  88	  95
  88	  97
  88	  98
  88	  99
  88	 101
  88	 102
  88	 107
  88	 108
  88	 109
  88	 110
  89	  90
  89	  92
  89	  96
  89	 113
  89	 118
  89	 119
  90	  91
  90	  97
  90	 103
  90	 105
  90	 110
  90	 112
  91	  96
  91	 108
  91	 110
  91	 115
  92	  93
  92	  98
  92	 100
  92	 107
  92	 116
  93	  94
  93	  95
  93	  97
  93	 101
  93	 102
  93	 113
  93	 114
  93	 115
  93	 119
  94	 100
  94	 109
  94	 113
  95	  99
  95	 103
  95	 105
  95	 107
  96	  97
  96	 101
  96	 103
  96	 104
  96	 105
  96	 109
  96	 112
  96	 114
  96	 116
  96	 119
  97	  99
  97	 100
  97	 112
  97	 113
  97	 115
  97	 116
  97	 118
  98	 107
  98	 110
  98	 115
 100	 102
 100	 104
 100	 106
 101	 108
 101	 109
 101	 111
 101	 114
 102	 112
 103	 114
 103	 116
 104	 107
 104	 112
 105	 114
 105	 119
 106	 118
 108	 114
 108	 115
 108	 117
 109	 112
 110	 115
 110	 118
 111	 119
 112	 114
 112	 116
 115	 116
 118	 119
;
